NAME : prob25b.6665.tour
COMMENT : Cost = 0_6665
COMMENT : Found by LKH [Keld Helsgaun] Sun Sep 17 01:06:29 2017
TYPE : TOUR
DIMENSION : 51
TOUR_SECTION
1
29
36
39
35
48
38
34
40
51
41
46
49
26
45
47
16
28
44
20
31
9
42
21
33
43
17
30
13
50
37
4
32
8
22
23
15
10
12
24
18
27
7
14
3
5
11
19
25
2
6
-1
EOF
